c description: Random 3-CNF over 15 variables and 80 clauses
c generator: CNFgen (0.9.0)
c copyright: (C) 2012-2020 Massimo Lauria <massimo.lauria@uniroma1.it>
c url: https://massimolauria.net/cnfgen
c
p cnf 15 80
10 -11 -13 0
-9 10 12 0
-1 7 14 0
4 9 14 0
-3 -11 12 0
-3 -9 -10 0
-4 13 15 0
8 9 12 0
4 5 -8 0
10 -11 15 0
2 11 -15 0
2 -14 -15 0
5 11 -12 0
7 9 12 0
6 9 13 0
1 -7 -8 0
-1 -7 -11 0
-9 -10 -13 0
-11 -12 -14 0
-4 -14 15 0
6 -10 -15 0
-3 -11 -12 0
-6 -7 -15 0
-3 11 -14 0
2 13 14 0
-1 -4 6 0
2 11 12 0
-4 5 -11 0
-2 -12 -15 0
2 -7 15 0
7 12 14 0
-1 2 -5 0
-5 -7 -11 0
1 7 -12 0
-5 -7 10 0
-3 4 7 0
3 -5 -13 0
7 9 15 0
-5 9 10 0
-5 -9 12 0
8 13 15 0
6 9 11 0
2 -6 12 0
-4 -7 -12 0
8 10 -15 0
-2 -5 11 0
6 -12 14 0
6 -8 -10 0
-5 -6 15 0
-8 13 -15 0
-8 -9 -10 0
-5 8 12 0
-4 -6 -11 0
1 11 15 0
8 12 -13 0
-1 -11 14 0
2 -4 -9 0
6 -10 13 0
1 6 8 0
2 -5 11 0
-7 9 -14 0
2 -4 -6 0
3 -5 -8 0
-1 -2 -12 0
-3 5 -12 0
1 8 10 0
4 8 -14 0
5 -8 -12 0
-5 7 15 0
-1 -5 8 0
-8 -9 10 0
-5 10 12 0
-1 2 7 0
3 9 10 0
-6 12 13 0
-2 11 14 0
-3 13 -15 0
2 -10 -13 0
-1 -8 10 0
4 8 15 0